;; Mutation-Based Equivalence Benchmark
;; Source:     AutomatArk / instance10296.smt2
;; Mutations:  literal_char_inc
;; Status:     sat
;;
;; Original regex vs mutated regex
;; Equivalence check: unsat ⟺ L(R1) = L(R2)

(set-info :smt-lib-version 2.6)
(set-info :category "mutation")
(set-info :status sat)
(set-logic QF_S)

(declare-const x String)

;; R1: original
;; R2: mutated (literal_char_inc)
(assert
  (str.in_re x
    (re.union (re.inter (re.union (re.++ (re.opt (str.to_re "+")) (re.opt (str.to_re "1")) (re.opt (re.union (str.to_re "-") (str.to_re ".") (str.to_re " "))) (re.union (re.++ (str.to_re "(") ((_ re.loop 3 3) (re.range "0" "9")) (str.to_re ")")) ((_ re.loop 3 3) (re.range "0" "9"))) (re.opt (re.union (str.to_re "-") (str.to_re ".") (str.to_re " "))) ((_ re.loop 3 3) (re.range "0" "9")) (re.union (str.to_re "-") (str.to_re ".") (str.to_re " ")) ((_ re.loop 4 4) (re.range "0" "9"))) (re.++ ((_ re.loop 3 3) (re.range "0" "9")) (re.union (str.to_re "-") (str.to_re ".") (str.to_re " ")) ((_ re.loop 4 4) (re.range "0" "9")) (str.to_re "\u{a}"))) (re.comp (re.union (re.++ (re.opt (str.to_re "+")) (re.opt (str.to_re "1")) (re.opt (re.union (str.to_re "-") (str.to_re ".") (str.to_re " "))) (re.union (re.++ (str.to_re "(") ((_ re.loop 3 3) (re.range "0" "9")) (str.to_re ")")) ((_ re.loop 3 3) (re.range "0" "9"))) (re.opt (re.union (str.to_re ".") (str.to_re ".") (str.to_re " "))) ((_ re.loop 3 3) (re.range "0" "9")) (re.union (str.to_re "-") (str.to_re ".") (str.to_re " ")) ((_ re.loop 4 4) (re.range "0" "9"))) (re.++ ((_ re.loop 3 3) (re.range "0" "9")) (re.union (str.to_re "-") (str.to_re ".") (str.to_re " ")) ((_ re.loop 4 4) (re.range "0" "9")) (str.to_re "\u{a}"))))) (re.inter (re.comp (re.union (re.++ (re.opt (str.to_re "+")) (re.opt (str.to_re "1")) (re.opt (re.union (str.to_re "-") (str.to_re ".") (str.to_re " "))) (re.union (re.++ (str.to_re "(") ((_ re.loop 3 3) (re.range "0" "9")) (str.to_re ")")) ((_ re.loop 3 3) (re.range "0" "9"))) (re.opt (re.union (str.to_re "-") (str.to_re ".") (str.to_re " "))) ((_ re.loop 3 3) (re.range "0" "9")) (re.union (str.to_re "-") (str.to_re ".") (str.to_re " ")) ((_ re.loop 4 4) (re.range "0" "9"))) (re.++ ((_ re.loop 3 3) (re.range "0" "9")) (re.union (str.to_re "-") (str.to_re ".") (str.to_re " ")) ((_ re.loop 4 4) (re.range "0" "9")) (str.to_re "\u{a}")))) (re.union (re.++ (re.opt (str.to_re "+")) (re.opt (str.to_re "1")) (re.opt (re.union (str.to_re "-") (str.to_re ".") (str.to_re " "))) (re.union (re.++ (str.to_re "(") ((_ re.loop 3 3) (re.range "0" "9")) (str.to_re ")")) ((_ re.loop 3 3) (re.range "0" "9"))) (re.opt (re.union (str.to_re ".") (str.to_re ".") (str.to_re " "))) ((_ re.loop 3 3) (re.range "0" "9")) (re.union (str.to_re "-") (str.to_re ".") (str.to_re " ")) ((_ re.loop 4 4) (re.range "0" "9"))) (re.++ ((_ re.loop 3 3) (re.range "0" "9")) (re.union (str.to_re "-") (str.to_re ".") (str.to_re " ")) ((_ re.loop 4 4) (re.range "0" "9")) (str.to_re "\u{a}")))))))

(check-sat)
(exit)
